#######################



#######################
Set parameter TimeLimit to value 300
Set parameter SoftMemLimit to value 125
Set parameter LogFile to value 1003-MIPFocus0-Presolve1-TimeLimit300-k16x240-2.log
Set parameter Presolve to value 1
Set parameter Seed to value 2
Using license file /opt/gurobi/gurobi.lic

Gurobi Optimizer version 10.0.3 build v10.0.3rc0 (linux64)
Copyright (c) 2023, Gurobi Optimization, LLC

Read MPS format model from file /miplib2010/k16x240.mps.bz2
Reading time = 0.00 seconds
k16x240: 256 rows, 480 columns, 960 nonzeros

CPU model: Intel(R) Xeon(R) E-2388G CPU @ 3.20GHz, instruction set [SSE2|AVX|AVX2|AVX512]
Thread count: 8 physical cores, 16 logical processors, using up to 16 threads

Optimize a model with 256 rows, 480 columns and 960 nonzeros
Model fingerprint: 0x4e80885f
Variable types: 240 continuous, 240 integer (240 binary)
Coefficient statistics:
  Matrix range     [1e+00, 1e+03]
  Objective range  [1e+00, 1e+03]
  Bounds range     [1e+00, 1e+03]
  RHS range        [4e+00, 4e+02]
Found heuristic solution: objective 20929.000000
Presolve time: 0.00s
Presolved: 256 rows, 480 columns, 960 nonzeros
Variable types: 240 continuous, 240 integer (240 binary)

Root relaxation: objective 2.769838e+03, 51 iterations, 0.00 seconds (0.00 work units)

    Nodes    |    Current Node    |     Objective Bounds      |     Work
 Expl Unexpl |  Obj  Depth IntInf | Incumbent    BestBd   Gap | It/Node Time

     0     0 2769.83800    0   14 20929.0000 2769.83800  86.8%     -    0s
H    0     0                    11359.000000 2769.83800  75.6%     -    0s
H    0     0                    11195.000000 2769.83800  75.3%     -    0s
H    0     0                    11074.000000 8084.69631  27.0%     -    0s
     0     0 8084.69631    0   26 11074.0000 8084.69631  27.0%     -    0s
H    0     0                    10916.000000 8084.69631  25.9%     -    0s
     0     0 8528.16906    0   24 10916.0000 8528.16906  21.9%     -    0s
H    0     0                    10806.000000 8539.15185  21.0%     -    0s
     0     0 8539.15185    0   34 10806.0000 8539.15185  21.0%     -    0s
     0     0 8548.03675    0   29 10806.0000 8548.03675  20.9%     -    0s
     0     0 8731.72784    0   36 10806.0000 8731.72784  19.2%     -    0s
H    0     0                    10717.000000 8731.72784  18.5%     -    0s
     0     0 8793.93645    0   29 10717.0000 8793.93645  17.9%     -    0s
     0     0 8811.75933    0   32 10717.0000 8811.75933  17.8%     -    0s
     0     0 8817.74235    0   29 10717.0000 8817.74235  17.7%     -    0s
     0     0 8880.40020    0   37 10717.0000 8880.40020  17.1%     -    0s
     0     0 8929.21279    0   34 10717.0000 8929.21279  16.7%     -    0s
     0     0 8932.61799    0   37 10717.0000 8932.61799  16.7%     -    0s
     0     0 8999.33312    0   37 10717.0000 8999.33312  16.0%     -    0s
     0     0 9054.71772    0   35 10717.0000 9054.71772  15.5%     -    0s
     0     0 9064.42789    0   41 10717.0000 9064.42789  15.4%     -    0s
     0     0 9073.22331    0   34 10717.0000 9073.22331  15.3%     -    0s
     0     0 9093.78415    0   31 10717.0000 9093.78415  15.1%     -    0s
     0     0 9104.31983    0   41 10717.0000 9104.31983  15.0%     -    0s
     0     0 9105.90058    0   37 10717.0000 9105.90058  15.0%     -    0s
     0     0 9114.20371    0   35 10717.0000 9114.20371  15.0%     -    0s
     0     0 9114.20371    0   35 10717.0000 9114.20371  15.0%     -    0s
     0     2 9114.20371    0   35 10717.0000 9114.20371  15.0%     -    0s
H   31    38                    10711.000000 9189.97234  14.2%  56.1    0s
H   35    38                    10678.000000 9189.97234  13.9%  53.9    0s
H  128   137                    10674.000000 9189.97234  13.9%  36.0    0s
 30548 11428 10568.0202   36    2 10674.0000 10048.4533  5.86%  26.5    5s
 65636 17137 10444.6348   31   20 10674.0000 10221.3126  4.24%  27.2   10s
 104837 15561     cutoff   32      10674.0000 10371.4160  2.83%  27.6   15s

Cutting planes:
  Gomory: 2
  Lift-and-project: 11
  Cover: 58
  Implied bound: 41
  MIR: 210
  Flow cover: 329
  Flow path: 63
  Inf proof: 1
  Zero half: 13
  Network: 57
  Relax-and-lift: 4

Explored 144601 nodes (3824013 simplex iterations) in 19.64 seconds (24.24 work units)
Thread count was 16 (of 16 available processors)

Solution count 10: 10674 10678 10711 ... 20929

Optimal solution found (tolerance 1.00e-04)
Best objective 1.067400000000e+04, best bound 1.067400000000e+04, gap 0.0000%
